62      4       
27      18      22      24      
0       0       0       0       0       3       2       3       4       
10      0       0       0       8       3       7       11      15      
8       0       0       3       0       3       5       19      34      
8       6       0       0       0       2       16      24      
10      0       0       0       2       3       6       10      12      
10      4       0       0       0       2       8       9       
5       0       0       0       6       2       17      21      
9       8       0       0       0       2       21      44      
1       0       0       0       10      2       14      18      
6       0       0       2       0       3       23      30      46      
3       0       0       0       7       3       13      22      40      
4       0       7       0       0       1       18      
9       0       0       0       2       2       20      36      
1       0       0       0       5       2       25      59      
6       0       0       8       0       1       51      
10      0       0       0       2       2       26      45      
3       1       0       0       0       3       31      43      54      
8       0       0       1       0       1       46      
6       0       0       0       9       1       45      
7       4       0       0       0       1       33      
7       0       0       8       0       2       27      42      
3       2       0       0       0       2       32      43      
1       0       0       0       5       1       44      
6       0       0       0       4       3       31      32      38      
2       0       2       0       0       1       47      
3       2       0       0       0       1       35      
5       0       2       0       0       1       28      
5       0       0       3       0       2       29      37      
6       0       0       0       7       2       45      58      
9       0       0       0       3       1       41      
8       0       0       0       8       1       34      
9       2       0       0       0       2       39      48      
7       8       0       0       0       1       61      
8       5       0       0       0       1       39      
2       0       0       0       8       1       49      
9       7       0       0       0       1       42      
3       0       6       0       0       1       52      
9       0       0       9       0       1       44      
7       0       8       0       0       1       56      
3       0       0       10      0       1       61      
7       9       0       0       0       1       53      
3       0       9       0       0       1       47      
5       0       7       0       0       1       50      
7       5       0       0       0       1       53      
4       2       0       0       0       1       48      
9       0       0       0       4       1       53      
10      0       0       4       0       1       56      
6       0       2       0       0       1       56      
8       0       0       0       6       1       60      
9       6       0       0       0       2       51      59      
8       0       0       0       7       1       52      
5       0       3       0       0       1       55      
8       0       10      0       0       1       55      
8       2       0       0       0       2       55      59      
2       0       0       8       0       2       57      60      
8       0       9       0       0       1       60      
2       6       0       0       0       1       58      
9       0       0       5       0       1       61      
9       0       0       2       0       1       62      
2       0       0       3       0       1       62      
8       5       0       0       0       1       62      
0       0       0       0       0       0       